30
1 0 1
2 0 5
2 1 6
3 0 3
3 1 4
3 2 9
4 0 1
4 1 4
4 2 3
4 3 1
5 0 4
5 1 4
5 2 3
5 3 3
5 4 6
6 0 4
6 1 4
6 2 5
6 3 4
6 4 3
6 5 2
7 0 8
7 1 2
7 2 3
7 3 6
7 4 8
7 5 8
7 6 6
8 0 3
8 1 1
8 2 1
8 3 7
8 4 7
8 5 8
8 6 9
8 7 10
9 0 2
9 1 9
9 2 9
9 3 1
9 4 5
9 5 5
9 6 4
9 7 1
9 8 3
10 0 9
10 1 4
10 2 1
10 3 9
10 4 4
10 5 7
10 6 4
10 7 6
10 8 8
10 9 10
11 0 8
11 1 3
11 2 1
11 3 5
11 4 4
11 5 4
11 6 4
11 7 9
11 8 7
11 9 6
11 10 7
12 0 8
12 1 3
12 2 6
12 3 8
12 4 3
12 5 9
12 6 9
12 7 6
12 8 2
12 9 8
12 10 4
12 11 10
13 0 8
13 1 1
13 2 6
13 3 8
13 4 9
13 5 8
13 6 9
13 7 9
13 8 1
13 9 6
13 10 9
13 11 6
13 12 3
14 0 8
14 1 10
14 2 5
14 3 5
14 4 8
14 5 6
14 6 1
14 7 7
14 8 6
14 9 3
14 10 1
14 11 7
14 12 10
14 13 3
15 0 4
15 1 9
15 2 7
15 3 9
15 4 7
15 5 2
15 6 2
15 7 1
15 8 2
15 9 2
15 10 9
15 11 5
15 12 10
15 13 8
15 14 3
16 0 2
16 1 9
16 2 1
16 3 8
16 4 10
16 5 6
16 6 2
16 7 4
16 8 9
16 9 2
16 10 9
16 11 2
16 12 2
16 13 2
16 14 9
16 15 10
17 0 9
17 1 5
17 2 3
17 3 10
17 4 8
17 5 3
17 6 10
17 7 9
17 8 5
17 9 3
17 10 9
17 11 9
17 12 2
17 13 8
17 14 6
17 15 3
17 16 3
18 0 8
18 1 9
18 2 7
18 3 7
18 4 9
18 5 10
18 6 4
18 7 9
18 8 5
18 9 9
18 10 3
18 11 7
18 12 2
18 13 4
18 14 4
18 15 3
18 16 7
18 17 10
19 0 3
19 1 2
19 2 4
19 3 10
19 4 5
19 5 6
19 6 8
19 7 2
19 8 10
19 9 1
19 10 8
19 11 2
19 12 3
19 13 10
19 14 4
19 15 4
19 16 7
19 17 10
19 18 6
20 0 8
20 1 9
20 2 1
20 3 10
20 4 2
20 5 4
20 6 9
20 7 9
20 8 2
20 9 8
20 10 1
20 11 8
20 12 9
20 13 1
20 14 2
20 15 7
20 16 6
20 17 1
20 18 8
20 19 8
21 0 9
21 1 10
21 2 9
21 3 4
21 4 5
21 5 5
21 6 10
21 7 2
21 8 4
21 9 10
21 10 2
21 11 1
21 12 7
21 13 2
21 14 7
21 15 2
21 16 9
21 17 3
21 18 4
21 19 1
21 20 3
22 0 9
22 1 6
22 2 1
22 3 6
22 4 4
22 5 3
22 6 6
22 7 10
22 8 1
22 9 6
22 10 7
22 11 1
22 12 3
22 13 4
22 14 5
22 15 8
22 16 3
22 17 8
22 18 6
22 19 1
22 20 7
22 21 10
23 0 1
23 1 1
23 2 4
23 3 7
23 4 5
23 5 5
23 6 2
23 7 9
23 8 2
23 9 10
23 10 7
23 11 2
23 12 2
23 13 4
23 14 2
23 15 4
23 16 1
23 17 10
23 18 9
23 19 3
23 20 9
23 21 6
23 22 3
24 0 3
24 1 9
24 2 4
24 3 10
24 4 2
24 5 2
24 6 10
24 7 2
24 8 5
24 9 7
24 10 8
24 11 5
24 12 6
24 13 4
24 14 3
24 15 1
24 16 10
24 17 2
24 18 5
24 19 7
24 20 3
24 21 2
24 22 8
24 23 4
25 0 8
25 1 9
25 2 6
25 3 3
25 4 8
25 5 2
25 6 8
25 7 10
25 8 1
25 9 3
25 10 10
25 11 5
25 12 2
25 13 3
25 14 2
25 15 4
25 16 5
25 17 10
25 18 2
25 19 9
25 20 9
25 21 1
25 22 3
25 23 7
25 24 7
26 0 1
26 1 6
26 2 1
26 3 1
26 4 3
26 5 4
26 6 5
26 7 8
26 8 10
26 9 8
26 10 10
26 11 1
26 12 5
26 13 4
26 14 1
26 15 10
26 16 6
26 17 5
26 18 9
26 19 2
26 20 7
26 21 5
26 22 6
26 23 7
26 24 3
26 25 3
27 0 4
27 1 8
27 2 5
27 3 8
27 4 8
27 5 1
27 6 5
27 7 4
27 8 9
27 9 9
27 10 4
27 11 1
27 12 9
27 13 5
27 14 2
27 15 1
27 16 9
27 17 9
27 18 7
27 19 7
27 20 1
27 21 5
27 22 10
27 23 8
27 24 1
27 25 10
27 26 8
28 0 6
28 1 10
28 2 5
28 3 5
28 4 2
28 5 10
28 6 10
28 7 6
28 8 9
28 9 10
28 10 10
28 11 7
28 12 8
28 13 8
28 14 7
28 15 3
28 16 10
28 17 9
28 18 10
28 19 7
28 20 3
28 21 2
28 22 4
28 23 1
28 24 6
28 25 1
28 26 6
28 27 2
29 0 1
29 1 6
29 2 7
29 3 1
29 4 2
29 5 2
29 6 10
29 7 3
29 8 9
29 9 10
29 10 10
29 11 2
29 12 2
29 13 5
29 14 8
29 15 6
29 16 6
29 17 10
29 18 6
29 19 6
29 20 3
29 21 2
29 22 8
29 23 2
29 24 1
29 25 8
29 26 1
29 27 2
29 28 3
